
%    +-----------+
% 8  | | | | | | |
% 7  | | | | | | |
% 6  | |7| | | | |
% 5  | | | | | | |
% 4  |1|1| |6| | |
% 3  |1|1| |8|4| |
% 2  | | | |3| |5|
% 1  | |2| | | | |
%    +-----------+
n=6;
m=8;
h=2;
%maxT=30;
boxNumber=8;
boxSideLen = [2, 1, 1, 1, 1, 1, 1, 1];
boxStartX  = [1, 2, 4, 5, 6, 4, 2, 4];
boxStartY  = [3, 1, 2, 3, 2, 4, 6, 3];
